c description: Random 3-CNF over 24 variables and 102 clauses
c generator: CNFgen (0.9.2)
c copyright: (C) 2012-2022 Massimo Lauria <massimo.lauria@uniroma1.it>
c url: https://massimolauria.net/cnfgen
c command line: cnfgen --output CNF_4.28/24_bit_102_342.cnf randkcnf 3 24 102
c
p cnf 24 102
-3 -13 21 0
-2 15 24 0
13 -22 23 0
6 -7 -23 0
-2 -6 17 0
1 -15 18 0
11 14 -19 0
-10 20 24 0
-3 9 -14 0
-7 8 19 0
9 -11 -15 0
-9 -10 -23 0
-6 18 -24 0
-4 11 15 0
4 12 15 0
-9 -12 -19 0
-14 19 -23 0
-2 13 -14 0
-8 14 23 0
1 -3 10 0
-3 8 14 0
17 -20 -24 0
-7 -16 -20 0
10 -11 22 0
7 -8 23 0
3 5 -7 0
1 -2 -17 0
-7 -15 20 0
-1 8 -22 0
2 -12 -16 0
-7 12 22 0
5 -12 -21 0
-5 11 -24 0
-8 11 19 0
2 4 5 0
-8 9 -23 0
-11 12 20 0
-5 6 -14 0
-1 -5 13 0
-1 -10 -15 0
-10 11 -19 0
-3 -6 -19 0
-16 -21 23 0
6 -9 -11 0
-4 -9 -19 0
-2 -6 -9 0
-1 -5 -19 0
9 -13 -18 0
-10 15 17 0
13 -17 -21 0
-6 -14 -22 0
9 -10 17 0
-10 19 -22 0
-9 17 22 0
-3 -6 -24 0
8 -11 -16 0
18 22 -24 0
18 23 -24 0
8 18 -19 0
1 12 18 0
-3 -16 24 0
12 -15 18 0
-11 13 -24 0
-1 17 -24 0
4 -8 18 0
-10 16 21 0
5 -7 -21 0
7 17 -19 0
9 -18 22 0
-12 -18 20 0
-5 20 -22 0
7 -11 -13 0
-4 14 -17 0
-3 -19 22 0
-1 -9 12 0
4 7 -24 0
-13 22 -24 0
-3 6 19 0
11 -15 22 0
6 -7 23 0
1 3 -13 0
2 -18 -19 0
-7 -12 16 0
7 -17 -18 0
4 9 19 0
1 6 -18 0
7 -9 -22 0
2 -9 -17 0
6 -10 19 0
9 -15 -17 0
-3 7 24 0
-7 -10 19 0
5 18 21 0
-12 20 21 0
7 20 -24 0
5 -14 15 0
16 20 -23 0
16 -19 -22 0
8 -9 -19 0
11 12 -18 0
-5 17 22 0
-2 14 -15 0
